clingo version 5.5.2
Reading from stdin
Solving...
UNSATISFIABLE

Models       : 0
Calls        : 1
Time         : 0.678s (Solving: 0.00s 1st Model: 0.00s Unsat: 0.00s)
CPU Time     : 0.672s

Choices      : 0       
Conflicts    : 1        (Analyzed: 0)
Restarts     : 0       
Problems     : 0        (Average Length: 0.00 Splits: 0)
Lemmas       : 0        (Deleted: 0)
  Binary     : 0        (Ratio:   0.00%)
  Ternary    : 0        (Ratio:   0.00%)
  Conflict   : 0        (Average Length:    0.0 Ratio:   0.00%) 
  Loop       : 0        (Average Length:    0.0 Ratio:   0.00%) 
  Other      : 0        (Average Length:    0.0 Ratio:   0.00%) 
Backjumps    : 0        (Average:  0.00 Max:   0 Sum:      0)
  Executed   : 0        (Average:  0.00 Max:   0 Sum:      0 Ratio:   0.00%)
  Bounded    : 0        (Average:  0.00 Max:   0 Sum:      0 Ratio: 100.00%)

Rules        : 6838    
Atoms        : 426     
Bodies       : 6738    
Equivalences : 450      (Atom=Atom: 18 Body=Body: 28 Other: 404)
Tight        : No       (SCCs: 10 Non-Hcfs: 0 Nodes: 5059 Gammas: 0)
Variables    : 5854     (Eliminated:    0 Frozen: 5168)
Constraints  : 28798    (Binary:  79.4% Ternary:   0.5% Other:  20.1%)

